
  22   10
  10   10   10   10   10   10   10   10   10   10

   0   0   0   0   0   0   0   0   0   0   0   2 2 9 
   2   0   0   0   0   0   0  10   0   0   0   1 3 
   4   0   0  10   0   0   0   0   0   0   0   1 4 
   1   0   0   0   0   0   0  10   0   0   0   1 5 
   3   0   0   0   0  10   0   0   0   0   0   1 6 
   8   0   0   0   0   0  10   0   0   0   0   1 7 
   2   0   0   0   0   0   0  10   0   0   0   1 8 
   8   0   0   0   0  10   0   0   0   0   0   1 10 
   6   0   0   0   0   0   0   0   0   0  10   1 10 
   3   0   0   0   0   0   0   0   0   0  10   2 21 11 
   7   0   0   0   0   0  10   0   0   0   0   1 12 
   3  10   0   0   0   0   0   0   0   0   0   1 13 
  10  10   0   0   0   0   0   0   0   0   0   1 14 
   8   0   0  10   0   0   0   0   0   0   0   1 15 
   4   0   0   0   0   0   0   0   0  10   0   1 16 
  10   0   0  10   0   0   0   0   0   0   0   1 17 
   2   0   0   0   0   0   0  10   0   0   0   1 18 
   3   0   0   0  10   0   0   0   0   0   0   1 19 
   1   0   0   0   0   0   0   0   0  10   0   1 20 
   4   0  10   0   0   0   0   0   0   0   0   1 22
   4   0   0   0  10   0   0   0   0   0   0   1 22
   0   0   0   0   0   0   0   0   0   0   0   0 
